12657
12455
12422
12431
12520
12456
12175
12360
12342
12440
12293
12468
12241
12498
11820
12470
12449
12191
12286
12243
12414
12278
12311
12520
12293
12474
12468
12160
12473
12573
12495
12554
11811
12351
10572
12547
12283
12075
12200
11843
12672
12215
12327
12533
12498
12219
12587
12317
12505
12545
12380
12469
12390
12378
12243
12162
12479
12390
12489
12208
12525
12392
12479
12244
12421
12393
12435
11022
12438
12337
12620
12362
12514
12254
12459
11742
12253
12412
12348
12302
12473
12416
12446
12249
12272
12412
12509
12405
12542
12665
12408
12396
12096
12320
12285
12527
12248
12359
12124
12046
